p cnf 14 64
7 12 14 0
-7 10 -12 0
-1 8 12 0
2 7 12 0
-1 4 11 0
-8 13 14 0
3 6 -11 0
4 -6 -7 0
1 3 -12 0
-1 -4 11 0
3 -10 -11 0
-5 12 14 0
-2 -11 -12 0
-4 -6 10 0
-3 -6 12 0
-6 8 -11 0
-4 5 -11 0
12 -13 14 0
7 12 -14 0
-4 -7 -14 0
-10 -11 -12 0
-6 -7 13 0
-1 10 11 0
1 -9 14 0
2 -10 13 0
-8 -11 -14 0
6 -10 13 0
-1 -7 -10 0
-3 6 13 0
3 7 8 0
-2 10 11 0
1 3 -6 0
-1 -4 -13 0
2 7 -10 0
-2 -3 7 0
3 -7 10 0
5 11 -13 0
-8 11 -14 0
3 -5 -10 0
-1 -2 -9 0
5 -6 -11 0
3 6 -13 0
-3 -4 -9 0
7 10 -13 0
8 9 13 0
-1 -6 13 0
2 -7 14 0
-7 -11 12 0
-8 9 -14 0
-1 -5 -8 0
1 4 -13 0
4 -9 14 0
-5 -9 -14 0
2 -10 -11 0
-4 8 -14 0
-6 -8 10 0
-8 -11 12 0
-1 -9 13 0
-4 -5 11 0
-1 -5 -7 0
4 -5 6 0
3 -9 -13 0
-10 12 -13 0
3 -6 8 0
